c SAT-encoding for the no-three-in-line problem of N=3
p cnf 42 141
-10 -11 0
-10 -12 0
-11 -12 0
-10 3 0
-10 5 0
-3 -5 10 0
-11 3 0
-11 7 0
-3 -7 11 0
-12 5 0
-12 7 0
-5 -7 12 0
13 14 15 0
-13 -14 0
-13 -15 0
-14 -15 0
-13 4 0
-13 5 0
-4 -5 13 0
-14 4 0
-14 6 0
-4 -6 14 0
-15 5 0
-15 6 0
-5 -6 15 0
16 17 18 0
-16 -17 0
-16 -18 0
-17 -18 0
-16 1 0
-16 2 0
-1 -2 16 0
-17 1 0
-17 3 0
-1 -3 17 0
-18 2 0
-18 3 0
-2 -3 18 0
19 20 21 0
-19 -20 0
-19 -21 0
-20 -21 0
-19 7 0
-19 8 0
-7 -8 19 0
-20 7 0
-20 9 0
-7 -9 20 0
-21 8 0
-21 9 0
-8 -9 21 0
-22 -23 0
-22 -24 0
-23 -24 0
-22 1 0
-22 5 0
-1 -5 22 0
-23 1 0
-23 9 0
-1 -9 23 0
-24 5 0
-24 9 0
-5 -9 24 0
25 26 27 0
-25 -26 0
-25 -27 0
-26 -27 0
-25 2 0
-25 5 0
-2 -5 25 0
-26 2 0
-26 8 0
-2 -8 26 0
-27 5 0
-27 8 0
-5 -8 27 0
28 29 30 0
-28 -29 0
-28 -30 0
-29 -30 0
-28 1 0
-28 4 0
-1 -4 28 0
-29 1 0
-29 7 0
-1 -7 29 0
-30 4 0
-30 7 0
-4 -7 30 0
31 32 33 0
-31 -32 0
-31 -33 0
-32 -33 0
-31 3 0
-31 6 0
-3 -6 31 0
-32 3 0
-32 9 0
-3 -9 32 0
-33 6 0
-33 9 0
-6 -9 33 0
34 35 36 0
-34 -35 0
-34 -36 0
-35 -36 0
-34 2 0
-34 5 0
-2 -5 34 0
-35 2 0
-35 8 0
-2 -8 35 0
-36 5 0
-36 8 0
-5 -8 36 0
37 38 39 0
-37 -38 0
-37 -39 0
-38 -39 0
-37 3 0
-37 6 0
-3 -6 37 0
-38 3 0
-38 9 0
-3 -9 38 0
-39 6 0
-39 9 0
-6 -9 39 0
40 41 42 0
-40 -41 0
-40 -42 0
-41 -42 0
-40 1 0
-40 4 0
-1 -4 40 0
-41 1 0
-41 7 0
-1 -7 41 0
-42 4 0
-42 7 0
-4 -7 42 0
